unsat
(:max-memory         18.11
 :memory             17.98
 :nlsat-conflicts    1
 :nlsat-propagations 4
 :nlsat-stages       2
 :num-allocs         6127
 :rlimit-count       3889
 :time               0.00
 :total-time         0.01)
